p cnf 293 667
-1 10 0 
1 247 0 
-97 -98 0 
-99 -100 0 
-101 -102 0 
-103 -104 0 
-105 106 0 
-10 -11 12 0 
-10 11 59 0 
-107 108 0 
-107 141 0 
-108 109 0 
-108 137 0 
-109 110 0 
-109 133 0 
-110 111 0 
-110 129 0 
-111 112 0 
-111 125 0 
-112 113 0 
-112 121 0 
-113 114 0 
-113 117 0 
-114 -115 0 
-115 116 0 
-116 -92 0 
-11 4 0 
-117 -118 0 
-118 -119 -120 0 
-118 119 120 0 
-119 94 0 
-120 92 0 
-121 -122 0 
-122 -123 -124 0 
-122 123 124 0 
-123 96 0 
-124 120 0 
-124 94 0 
-125 -126 0 
-126 -127 -128 0 
-126 127 128 0 
-127 98 0 
-128 124 0 
-128 96 0 
-129 -130 0 
-130 -131 -132 0 
-130 131 132 0 
-131 100 0 
-132 98 0 
-132 128 0 
-133 -134 0 
-134 -135 -136 0 
-134 135 136 0 
-135 102 0 
-136 100 0 
-136 132 0 
-12 13 0 
-12 57 0 
-137 -138 0 
-138 -139 -140 0 
-138 139 140 0 
-139 104 0 
-140 102 0 
-140 136 0 
-141 142 0 
-142 -143 -144 0 
-142 143 144 0 
-143 106 0 
-144 104 0 
-144 140 0 
-145 -146 12 0 
-145 146 148 0 
-146 147 0 
-13 14 0 
-13 55 0 
-148 -64 149 0 
-148 64 200 0 
-149 -77 12 0 
-149 77 150 0 
-150 -79 12 0 
-150 79 151 0 
-151 -81 152 0 
-151 81 200 0 
-152 -84 12 0 
-152 84 153 0 
-153 154 0 
-153 198 0 
-154 155 0 
-154 196 0 
-155 156 0 
-155 194 0 
-156 157 0 
-156 192 0 
-14 15 0 
-14 53 0 
-157 158 0 
-157 190 0 
-158 159 0 
-158 188 0 
-159 160 0 
-159 186 0 
-160 161 0 
-160 184 0 
-161 162 0 
-161 182 0 
-162 163 0 
-162 180 0 
-163 164 0 
-163 178 0 
-164 165 0 
-164 176 0 
-165 166 0 
-165 174 0 
-166 167 0 
-166 172 0 
-15 16 0 
-15 51 0 
-167 168 0 
-167 170 0 
-168 -169 28 0 
-168 -28 169 0 
-170 -171 30 0 
-170 -30 171 0 
-172 -173 32 0 
-172 -32 173 0 
-174 -175 34 0 
-174 -34 175 0 
-176 -177 36 0 
-176 -36 177 0 
-16 17 0 
-16 49 0 
-178 -179 38 0 
-178 -38 179 0 
-180 -181 40 0 
-180 -40 181 0 
-182 -183 42 0 
-182 -42 183 0 
-184 -185 44 0 
-184 -44 185 0 
-186 -187 46 0 
-186 -46 187 0 
-17 18 0 
-17 47 0 
-188 -189 48 0 
-188 -48 189 0 
-190 -191 50 0 
-190 -50 191 0 
-192 -193 52 0 
-192 -52 193 0 
-194 -195 54 0 
-194 -54 195 0 
-196 -197 56 0 
-196 -56 197 0 
-1 2 6 0 
-18 19 0 
-18 45 0 
-198 -199 58 0 
-198 -58 199 0 
-200 201 0 
-200 245 0 
-201 202 0 
-201 243 0 
-202 203 0 
-202 241 0 
-203 204 0 
-203 239 0 
-204 205 0 
-204 237 0 
-205 206 0 
-205 235 0 
-206 207 0 
-206 233 0 
-19 20 0 
-19 43 0 
-207 208 0 
-207 231 0 
-208 209 0 
-208 229 0 
-209 210 0 
-209 227 0 
-210 211 0 
-210 225 0 
-211 212 0 
-211 223 0 
-212 213 0 
-212 221 0 
-213 214 0 
-213 219 0 
-214 215 0 
-214 217 0 
-215 -216 28 0 
-215 -28 216 0 
-20 21 0 
-20 41 0 
-217 -218 30 0 
-217 -30 218 0 
-219 -220 32 0 
-219 -32 220 0 
-221 -222 34 0 
-221 -34 222 0 
-223 -224 36 0 
-223 -36 224 0 
-225 -226 38 0 
-225 -38 226 0 
-21 22 0 
-21 39 0 
-227 -228 40 0 
-227 -40 228 0 
-229 -230 42 0 
-229 -42 230 0 
-231 -232 44 0 
-231 -44 232 0 
-233 -234 46 0 
-233 -46 234 0 
-235 -236 48 0 
-235 -48 236 0 
-22 23 0 
-22 37 0 
-237 -238 50 0 
-237 -50 238 0 
-239 -240 52 0 
-239 -52 240 0 
-241 -242 54 0 
-241 -54 242 0 
-243 -244 56 0 
-243 -56 244 0 
-245 -246 58 0 
-245 -58 246 0 
-23 24 0 
-23 35 0 
-247 248 0 
-247 292 0 
-248 249 0 
-248 290 0 
-249 250 0 
-249 288 0 
-250 251 0 
-250 286 0 
-251 252 0 
-251 284 0 
-252 253 0 
-252 282 0 
-253 254 0 
-253 280 0 
-254 255 0 
-254 278 0 
-255 256 0 
-255 276 0 
-256 257 0 
-256 274 0 
-24 25 0 
-24 33 0 
-257 258 0 
-257 272 0 
-258 259 0 
-258 270 0 
-259 260 0 
-259 268 0 
-260 261 0 
-260 266 0 
-261 262 0 
-261 264 0 
-262 -263 28 0 
-262 -28 263 0 
-264 -265 30 0 
-264 -30 265 0 
-266 -267 32 0 
-266 -32 267 0 
-25 26 0 
-25 31 0 
-268 -269 34 0 
-268 -34 269 0 
-270 -271 36 0 
-270 -36 271 0 
-272 -273 38 0 
-272 -38 273 0 
-274 -275 40 0 
-274 -40 275 0 
-276 -277 42 0 
-276 -42 277 0 
-26 27 0 
-26 29 0 
-278 -279 44 0 
-278 -44 279 0 
-280 -281 46 0 
-280 -46 281 0 
-282 -283 48 0 
-282 -48 283 0 
-284 -285 50 0 
-284 -50 285 0 
-286 -287 52 0 
-286 -52 287 0 
-27 -28 0 
-288 -289 54 0 
-288 -54 289 0 
-290 -291 56 0 
-290 -56 291 0 
-292 -293 58 0 
-292 -58 293 0 
-2 -3 0 
-29 -30 0 
-31 -32 0 
-33 -34 0 
-35 -36 0 
-3 -4 5 0 
-3 -5 4 0 
-37 -38 0 
-39 -40 0 
-41 -42 0 
-43 -44 0 
-45 -46 0 
-47 -48 0 
-49 -50 0 
-51 -52 0 
-53 -54 0 
-55 -56 0 
-57 -58 0 
-59 -60 62 0 
-59 60 247 0 
-60 61 0 
-60 6 0 
-61 8 0 
-62 -63 145 0 
-62 63 247 0 
-63 -64 76 0 
-63 64 84 0 
-64 65 73 0 
-65 66 69 0 
-66 -67 0 
-6 -7 0 
-67 -5 68 0 
-67 -68 5 0 
-69 -70 0 
-70 -71 72 0 
-70 -72 71 0 
-73 -74 0 
-74 -9 75 0 
-74 -75 9 0 
-76 -77 0 
-76 77 78 0 
-7 -9 8 0 
-7 -8 9 0 
-77 5 0 
-78 -79 0 
-78 79 80 0 
-79 71 0 
-80 -81 83 0 
-80 81 84 0 
-81 73 0 
-81 82 0 
-82 9 0 
-83 -84 0 
-83 84 107 0 
-84 105 0 
-84 85 0 
-85 103 0 
-85 86 0 
-86 101 0 
-86 87 0 
-87 99 0 
-87 88 0 
-88 97 0 
-88 89 0 
-89 90 0 
-89 95 0 
-90 91 0 
-90 93 0 
-91 -92 0 
-93 -94 0 
-95 -96 0 
97 98 0 
99 100 0 
101 102 0 
103 104 0 
105 -106 0 
10 -11 -12 0 
10 -12 -59 0 
10 11 -59 0 
107 -108 -141 0 
108 -109 -137 0 
109 -110 -133 0 
110 -111 -129 0 
111 -112 -125 0 
112 -113 -121 0 
113 -114 -117 0 
114 115 0 
115 -116 0 
116 92 0 
11 -4 0 
117 118 0 
118 -119 120 0 
118 -120 119 0 
119 -94 0 
120 -92 0 
121 122 0 
122 -123 124 0 
122 -124 123 0 
123 -96 0 
124 -94 -120 0 
125 126 0 
126 -127 128 0 
126 -128 127 0 
127 -98 0 
128 -96 -124 0 
129 130 0 
130 -131 132 0 
130 -132 131 0 
131 -100 0 
132 -98 -128 0 
133 134 0 
134 -135 136 0 
134 -136 135 0 
135 -102 0 
136 -100 -132 0 
12 -13 -57 0 
137 138 0 
138 -139 140 0 
138 -140 139 0 
139 -104 0 
140 -102 -136 0 
141 -142 0 
142 -143 144 0 
142 -144 143 0 
143 -106 0 
144 -104 -140 0 
145 -12 -148 0 
145 -146 -12 0 
145 146 -148 0 
146 -147 0 
13 -14 -55 0 
148 -149 -200 0 
148 -64 -149 0 
148 64 -200 0 
149 -12 -150 0 
149 -77 -12 0 
149 77 -150 0 
150 -12 -151 0 
150 -79 -12 0 
150 79 -151 0 
151 -152 -200 0 
151 -81 -152 0 
151 81 -200 0 
152 -12 -153 0 
152 -84 -12 0 
152 84 -153 0 
153 -154 -198 0 
154 -155 -196 0 
155 -156 -194 0 
156 -157 -192 0 
14 -15 -53 0 
157 -158 -190 0 
158 -159 -188 0 
159 -160 -186 0 
160 -161 -184 0 
161 -162 -182 0 
162 -163 -180 0 
163 -164 -178 0 
164 -165 -176 0 
165 -166 -174 0 
166 -167 -172 0 
15 -16 -51 0 
167 -168 -170 0 
168 -28 -169 0 
168 28 169 0 
170 -30 -171 0 
170 30 171 0 
172 -32 -173 0 
172 32 173 0 
174 -34 -175 0 
174 34 175 0 
176 -36 -177 0 
176 36 177 0 
16 -17 -49 0 
178 -38 -179 0 
178 38 179 0 
180 -40 -181 0 
180 40 181 0 
182 -42 -183 0 
182 42 183 0 
184 -44 -185 0 
184 44 185 0 
186 -46 -187 0 
186 46 187 0 
17 -18 -47 0 
188 -48 -189 0 
188 48 189 0 
190 -50 -191 0 
190 50 191 0 
192 -52 -193 0 
192 52 193 0 
194 -54 -195 0 
194 54 195 0 
196 -56 -197 0 
196 56 197 0 
1 -2 0 
1 -6 0 
18 -19 -45 0 
198 -58 -199 0 
198 58 199 0 
200 -201 -245 0 
201 -202 -243 0 
202 -203 -241 0 
203 -204 -239 0 
204 -205 -237 0 
205 -206 -235 0 
206 -207 -233 0 
19 -20 -43 0 
207 -208 -231 0 
208 -209 -229 0 
209 -210 -227 0 
210 -211 -225 0 
211 -212 -223 0 
212 -213 -221 0 
213 -214 -219 0 
214 -215 -217 0 
215 -28 -216 0 
215 28 216 0 
20 -21 -41 0 
217 -30 -218 0 
217 30 218 0 
219 -32 -220 0 
219 32 220 0 
221 -34 -222 0 
221 34 222 0 
223 -36 -224 0 
223 36 224 0 
225 -38 -226 0 
225 38 226 0 
21 -22 -39 0 
227 -40 -228 0 
227 40 228 0 
229 -42 -230 0 
229 42 230 0 
231 -44 -232 0 
231 44 232 0 
233 -46 -234 0 
233 46 234 0 
235 -48 -236 0 
235 48 236 0 
22 -23 -37 0 
237 -50 -238 0 
237 50 238 0 
239 -52 -240 0 
239 52 240 0 
241 -54 -242 0 
241 54 242 0 
243 -56 -244 0 
243 56 244 0 
245 -58 -246 0 
245 58 246 0 
23 -24 -35 0 
247 -248 -292 0 
248 -249 -290 0 
249 -250 -288 0 
250 -251 -286 0 
251 -252 -284 0 
252 -253 -282 0 
253 -254 -280 0 
254 -255 -278 0 
255 -256 -276 0 
256 -257 -274 0 
24 -25 -33 0 
257 -258 -272 0 
258 -259 -270 0 
259 -260 -268 0 
260 -261 -266 0 
261 -262 -264 0 
262 -28 -263 0 
262 28 263 0 
264 -30 -265 0 
264 30 265 0 
266 -32 -267 0 
266 32 267 0 
25 -26 -31 0 
268 -34 -269 0 
268 34 269 0 
270 -36 -271 0 
270 36 271 0 
272 -38 -273 0 
272 38 273 0 
274 -40 -275 0 
274 40 275 0 
276 -42 -277 0 
276 42 277 0 
26 -27 -29 0 
278 -44 -279 0 
278 44 279 0 
280 -46 -281 0 
280 46 281 0 
282 -48 -283 0 
282 48 283 0 
284 -50 -285 0 
284 50 285 0 
286 -52 -287 0 
286 52 287 0 
27 28 0 
288 -54 -289 0 
288 54 289 0 
290 -56 -291 0 
290 56 291 0 
292 -58 -293 0 
292 58 293 0 
2 3 0 
29 30 0 
31 32 0 
33 34 0 
35 36 0 
3 -4 -5 0 
3 4 5 0 
37 38 0 
39 40 0 
41 42 0 
43 44 0 
45 46 0 
47 48 0 
49 50 0 
51 52 0 
53 54 0 
55 56 0 
57 58 0 
59 -60 -62 0 
59 -62 -247 0 
59 60 -247 0 
60 -6 -61 0 
61 -8 0 
62 -145 -247 0 
62 -63 -145 0 
62 63 -247 0 
63 -64 -76 0 
63 -76 -84 0 
63 64 -84 0 
64 -65 0 
64 -73 0 
65 -66 0 
65 -69 0 
66 67 0 
6 7 0 
67 -5 -68 0 
67 5 68 0 
69 70 0 
70 -71 -72 0 
70 71 72 0 
73 74 0 
74 -9 -75 0 
74 9 75 0 
76 77 -78 0 
7 -8 -9 0 
7 8 9 0 
77 -5 0 
78 79 -80 0 
79 -71 0 
80 -81 -83 0 
80 -83 -84 0 
80 81 -84 0 
81 -73 -82 0 
82 -9 0 
83 84 -107 0 
84 -85 -105 0 
85 -86 -103 0 
86 -87 -101 0 
87 -88 -99 0 
88 -89 -97 0 
89 -90 -95 0 
90 -91 -93 0 
91 92 0 
93 94 0 
95 96 0 
